* ENCODING=ISO-8859-1
NAME          CPLEX
ROWS
 N  obj1    
 G  c1      
 G  c2      
 G  c3      
 G  c4      
 G  c5      
 G  c6      
 G  c7      
 G  c8      
 G  c9      
 G  c10     
 G  c11     
 G  c12     
 G  c13     
 G  c14     
 G  c15     
 G  c16     
 G  c17     
 G  c18     
 G  c19     
 G  c20     
 G  c21     
 G  c22     
 G  c23     
 G  c24     
 G  c25     
 G  c26     
 G  c27     
 G  c28     
 G  c29     
 G  c30     
 G  c31     
 G  c32     
 G  c33     
 G  c34     
 G  c35     
 G  c36     
 G  c37     
 G  c38     
 G  c39     
 G  c40     
 G  c41     
 G  c42     
 G  c43     
 G  c44     
 G  c45     
 G  c46     
 G  c47     
 G  c48     
 G  c49     
 G  c50     
 G  c51     
 G  c52     
 G  c53     
 G  c54     
 G  c55     
 G  c56     
 G  c57     
 G  c58     
 G  c59     
 G  c60     
 G  c61     
 G  c62     
 G  c63     
 G  c64     
 G  c65     
 G  c66     
 G  c67     
 G  c68     
 G  c69     
 G  c70     
COLUMNS
    MARK0000  'MARKER'                 'INTORG'
    x1        obj1                            1
    x1        c2                            964
    x1        c5                            503
    x1        c11                           742
    x1        c16                           324
    x1        c20                           226
    x1        c23                           816
    x1        c40                           132
    x1        c44                           763
    x1        c67                           824
    x2        obj1                            1
    x2        c7                            167
    x2        c49                           736
    x2        c55                           923
    x2        c57                           337
    x2        c59                           570
    x2        c63                           288
    x3        obj1                            1
    x3        c3                            525
    x3        c11                           177
    x3        c23                           637
    x3        c25                           845
    x3        c35                           765
    x3        c39                           992
    x3        c59                           929
    x3        c61                           647
    x4        obj1                            1
    x4        c19                           250
    x4        c22                           851
    x4        c32                           736
    x4        c43                           931
    x4        c49                           102
    x5        obj1                            1
    x5        c2                            173
    x5        c52                           780
    x5        c65                           567
    x6        obj1                            1
    x6        c16                           119
    x6        c39                           856
    x6        c66                           919
    x7        obj1                            1
    x7        c2                            186
    x7        c10                           222
    x7        c21                           215
    x7        c31                           593
    x7        c39                           941
    x7        c43                           428
    x7        c48                           422
    x7        c63                           860
    x7        c70                           567
    x8        obj1                            1
    x8        c4                            655
    x8        c8                            334
    x8        c11                           748
    x8        c16                           906
    x8        c24                           348
    x8        c25                           457
    x8        c36                           243
    x8        c58                           931
    x9        obj1                            1
    x9        c2                            864
    x9        c12                           749
    x9        c20                           386
    x9        c39                           826
    x9        c42                           677
    x9        c44                           810
    x9        c62                           609
    x10       obj1                            1
    x10       c13                           107
    x10       c31                           168
    x10       c33                           357
    x10       c48                           231
    x10       c59                           997
    x11       obj1                            1
    x11       c9                            114
    x11       c19                           488
    x11       c32                           952
    x11       c33                           192
    x11       c50                           391
    x11       c53                           855
    x11       c57                           370
    x11       c58                           762
    x11       c67                           541
    x11       c70                           892
    x12       obj1                            1
    x12       c12                           129
    x12       c16                           511
    x12       c28                           951
    x12       c35                           593
    x12       c36                           191
    x12       c45                           262
    x12       c59                           313
    x13       obj1                            1
    x13       c7                            520
    x13       c9                            583
    x13       c11                           726
    x13       c28                           538
    x13       c34                           665
    x13       c40                           669
    x14       obj1                            1
    x14       c3                            612
    x14       c10                           637
    x14       c13                           735
    x14       c21                           354
    x14       c44                           337
    x14       c51                           708
    x14       c59                           549
    x14       c64                           526
    x15       obj1                            1
    x15       c37                           339
    x15       c44                           774
    x15       c58                           756
    x15       c65                           661
    x16       obj1                            1
    x16       c23                           331
    x16       c24                           301
    x16       c25                           654
    x16       c30                           573
    x16       c34                           966
    x16       c35                           727
    x16       c55                           797
    x16       c61                           635
    x16       c65                           732
    x17       obj1                            1
    x17       c1                            870
    x17       c23                           869
    x17       c48                           536
    x18       obj1                            1
    x18       c3                            838
    x18       c21                           342
    x18       c30                           949
    x18       c35                           668
    x18       c38                           940
    x18       c50                           610
    x18       c51                           662
    x18       c55                           162
    x18       c57                           344
    x18       c60                           447
    x18       c66                           542
    x19       obj1                            1
    x19       c3                            576
    x19       c15                           906
    x19       c24                           424
    x19       c25                           392
    x19       c33                           747
    x19       c49                           813
    x19       c52                           187
    x19       c60                           483
    x19       c66                           293
    x19       c70                           650
    x20       obj1                            1
    x20       c33                           684
    x20       c41                           933
    x20       c68                           162
    x21       obj1                            1
    x21       c10                           271
    x21       c34                           281
    x21       c48                           235
    x22       obj1                            1
    x22       c28                           227
    x22       c40                           781
    x23       obj1                            1
    x23       c1                            618
    x23       c5                            807
    x23       c8                            559
    x23       c17                           157
    x23       c27                           766
    x23       c60                           459
    x23       c63                           603
    x24       obj1                            1
    x24       c10                           651
    x24       c18                           373
    x24       c19                           460
    x24       c25                           323
    x24       c38                           768
    x24       c45                           600
    x24       c50                           644
    x25       obj1                            1
    x25       c4                            282
    x25       c6                            745
    x25       c20                           387
    x25       c42                           420
    x25       c44                           857
    x25       c47                           232
    x25       c52                           885
    x25       c61                           872
    x25       c62                           275
    x26       obj1                            1
    x26       c13                           548
    x26       c30                           670
    x26       c68                           821
    x27       obj1                            1
    x27       c19                           262
    x27       c24                           989
    x27       c45                           600
    x27       c48                           390
    x27       c63                           875
    x28       obj1                            1
    x28       c3                            119
    x28       c4                            962
    x28       c14                           213
    x28       c16                           514
    x28       c20                           264
    x28       c38                           364
    x28       c40                           250
    x28       c47                           432
    x28       c59                           412
    x28       c63                           584
    x28       c66                           953
    x29       obj1                            1
    x29       c6                            448
    x29       c9                            829
    x29       c19                           606
    x29       c25                           695
    x29       c50                           736
    x30       obj1                            1
    x30       c7                            607
    x30       c8                            312
    x30       c24                           413
    x30       c49                           961
    x30       c62                           309
    x30       c63                           959
    x31       obj1                            1
    x31       c4                            910
    x31       c11                           637
    x31       c13                           369
    x31       c18                           576
    x31       c32                           843
    x31       c48                           103
    x31       c52                           312
    x31       c56                           269
    x31       c58                           182
    x32       obj1                            1
    x32       c12                           606
    x32       c16                           242
    x32       c20                           287
    x32       c23                           355
    x32       c44                           365
    x32       c51                           470
    x32       c53                           926
    x32       c54                           286
    x32       c58                           153
    x32       c62                           227
    x33       obj1                            1
    x33       c13                           676
    x33       c50                           110
    x33       c63                           869
    x33       c64                           750
    x34       obj1                            1
    x34       c2                            895
    x34       c8                            179
    x34       c13                           601
    x34       c20                           440
    x34       c27                           915
    x34       c51                           794
    x34       c67                           188
    x35       obj1                            1
    x35       c8                            437
    x35       c25                           224
    x35       c26                           227
    x35       c42                           620
    x35       c66                           698
    x36       obj1                            1
    x36       c4                            610
    x36       c7                            615
    x36       c8                            471
    x36       c12                           648
    x36       c14                           176
    x36       c29                           827
    x36       c34                           701
    x36       c55                           771
    x37       obj1                            1
    x37       c2                            856
    x37       c10                           742
    x37       c19                           739
    x37       c26                           619
    x37       c43                           658
    x38       obj1                            1
    x38       c3                            309
    x38       c28                           346
    x38       c42                           469
    x39       obj1                            1
    x39       c6                            365
    x39       c9                            917
    x39       c26                           988
    x39       c29                           969
    x39       c32                           260
    x39       c47                           343
    x39       c51                           594
    x40       obj1                            1
    x40       c3                            567
    x40       c6                            401
    x40       c22                           822
    x40       c27                           514
    x41       obj1                            1
    x41       c2                            934
    x41       c11                           711
    x41       c32                           531
    x41       c36                           822
    x41       c53                           985
    x41       c67                           271
    x42       obj1                            1
    x42       c11                           570
    x42       c13                           679
    x42       c48                           407
    x42       c52                           285
    x42       c55                           131
    x42       c62                           563
    x43       obj1                            1
    x43       c8                            869
    x43       c11                           294
    x43       c22                           984
    x43       c24                           549
    x43       c27                           956
    x43       c29                           499
    x43       c49                           301
    x43       c58                           423
    x44       obj1                            1
    x44       c23                           643
    x44       c31                           815
    x44       c53                           284
    x44       c55                           848
    x44       c60                           838
    x44       c62                           591
    x44       c64                           721
    x45       obj1                            1
    x45       c3                            392
    x45       c10                           903
    x45       c44                           859
    x45       c51                           155
    x45       c56                           270
    x45       c69                           308
    x46       obj1                            1
    x46       c3                            717
    x46       c11                           555
    x46       c24                           440
    x46       c29                           598
    x46       c36                           189
    x46       c45                           604
    x46       c53                           359
    x46       c55                           374
    x47       obj1                            1
    x47       c46                           869
    x47       c49                           315
    x48       obj1                            1
    x48       c58                           454
    x49       obj1                            1
    x49       c10                           160
    x49       c22                           115
    x49       c27                           461
    x49       c31                           672
    x49       c62                           251
    x49       c64                           522
    x50       obj1                            1
    x50       c15                           309
    x50       c18                           978
    x50       c39                           226
    x50       c59                           410
    x50       c68                           941
    x51       obj1                            1
    x51       c1                            769
    x51       c6                            131
    x51       c7                            364
    x51       c13                           492
    x51       c19                           798
    x51       c27                           886
    x51       c33                           483
    x51       c46                           301
    x51       c61                           704
    x51       c66                           634
    x51       c67                           841
    x52       obj1                            1
    x52       c4                            841
    x52       c7                            556
    x52       c41                           874
    x52       c47                           434
    x52       c49                           277
    x52       c53                           728
    x53       obj1                            1
    x53       c15                           591
    x53       c16                           478
    x53       c33                           694
    x53       c53                           805
    x53       c58                           937
    x53       c64                           842
    x54       obj1                            1
    x54       c1                            945
    x54       c14                           649
    x54       c15                           628
    x54       c18                           570
    x54       c33                           644
    x54       c44                           473
    x54       c48                           202
    x54       c56                           313
    x54       c57                           187
    x54       c65                           619
    x54       c67                           173
    x54       c69                           686
    x55       obj1                            1
    x55       c4                            851
    x55       c9                            949
    x55       c23                           683
    x55       c26                           521
    x55       c41                           505
    x55       c49                           734
    x55       c56                           915
    x56       obj1                            1
    x56       c10                           719
    x56       c14                           948
    x56       c16                           969
    x56       c30                           467
    x56       c37                           379
    x56       c40                           173
    x56       c67                           775
    x57       obj1                            1
    x57       c1                            705
    x57       c17                           885
    x57       c23                           407
    x57       c26                           855
    x57       c37                           243
    x57       c46                           284
    x57       c50                           967
    x57       c66                           541
    x58       obj1                            1
    x58       c1                            397
    x58       c7                            610
    x58       c20                           717
    x58       c22                           340
    x58       c41                           111
    x58       c48                           596
    x58       c53                           577
    x58       c58                           971
    x58       c59                           282
    x58       c63                           923
    x58       c66                           202
    x58       c70                           638
    x59       obj1                            1
    x59       c21                           555
    x59       c24                           898
    x59       c42                           728
    x59       c62                           342
    x59       c63                           716
    x60       obj1                            1
    x60       c2                            645
    x60       c21                           620
    x60       c27                           631
    x60       c39                           116
    x60       c41                           198
    x60       c45                           624
    x60       c47                           886
    x60       c50                           615
    x60       c52                           557
    x61       obj1                            1
    x61       c1                            343
    x61       c15                           273
    x61       c20                           537
    x61       c26                           351
    x61       c27                           506
    x61       c30                           998
    x61       c34                           384
    x61       c50                           600
    x61       c54                           941
    x61       c55                           948
    x61       c66                           121
    x61       c68                           236
    x62       obj1                            1
    x62       c5                            522
    x62       c24                           565
    x62       c25                           198
    x62       c33                           417
    x62       c35                           348
    x62       c40                           124
    x62       c51                           329
    x62       c68                           489
    x63       obj1                            1
    x63       c16                           981
    x63       c26                           543
    x63       c27                           971
    x63       c43                           506
    x63       c44                           633
    x63       c47                           830
    x64       obj1                            1
    x64       c1                            332
    x64       c3                            330
    x64       c4                            875
    x64       c45                           692
    x64       c63                           421
    x64       c65                           494
    x65       obj1                            1
    x65       c19                           957
    x65       c20                           540
    x65       c26                           842
    x65       c28                           652
    x65       c34                           947
    x65       c47                           529
    x65       c69                           796
    x66       obj1                            1
    x66       c5                            948
    x66       c54                           305
    x66       c66                           821
    x67       obj1                            1
    x67       c7                            438
    x67       c17                           597
    x67       c21                           841
    x67       c22                           350
    x67       c30                           554
    x67       c41                           957
    x67       c45                           743
    x67       c46                           517
    x67       c60                           932
    x67       c62                           410
    x68       obj1                            1
    x68       c9                            657
    x68       c10                           253
    x68       c16                           134
    x68       c27                           341
    x68       c40                           346
    x68       c41                           549
    x68       c48                           105
    x68       c50                           912
    x69       obj1                            1
    x69       c5                            213
    x69       c7                            271
    x69       c21                           335
    x69       c24                           662
    x69       c37                           572
    x69       c38                           935
    x69       c43                           895
    x69       c50                           619
    x69       c52                           529
    x69       c59                           345
    x69       c60                           185
    x69       c61                           322
    x69       c62                           925
    x69       c69                           558
    x70       obj1                            1
    x70       c6                            857
    x70       c8                            112
    x70       c17                           781
    x70       c52                           540
    x70       c54                           821
    MARK0001  'MARKER'                 'INTEND'
RHS
    rhs       c1                           2490
    rhs       c2                           2759
    rhs       c3                           2493
    rhs       c4                           2993
    rhs       c5                           1497
    rhs       c6                           1474
    rhs       c7                           2074
    rhs       c8                           1637
    rhs       c9                           2025
    rhs       c10                          2279
    rhs       c11                          2580
    rhs       c12                          1066
    rhs       c13                          2104
    rhs       c14                           993
    rhs       c15                          1354
    rhs       c16                          2589
    rhs       c17                          1210
    rhs       c18                          1249
    rhs       c19                          2280
    rhs       c20                          1892
    rhs       c21                          1631
    rhs       c22                          1731
    rhs       c23                          2371
    rhs       c24                          2795
    rhs       c25                          1894
    rhs       c26                          2473
    rhs       c27                          3474
    rhs       c28                          1357
    rhs       c29                          1447
    rhs       c30                          2106
    rhs       c31                          1124
    rhs       c32                          1661
    rhs       c33                          2109
    rhs       c34                          1972
    rhs       c35                          1551
    rhs       c36                           723
    rhs       c37                           767
    rhs       c38                          1504
    rhs       c39                          1979
    rhs       c40                          1238
    rhs       c41                          2064
    rhs       c42                          1457
    rhs       c43                          1709
    rhs       c44                          2936
    rhs       c45                          2063
    rhs       c46                           986
    rhs       c47                          1843
    rhs       c48                          1614
    rhs       c49                          2120
    rhs       c50                          3102
    rhs       c51                          1856
    rhs       c52                          2038
    rhs       c53                          2760
    rhs       c54                          1177
    rhs       c55                          2477
    rhs       c56                           884
    rhs       c57                           619
    rhs       c58                          2785
    rhs       c59                          2404
    rhs       c60                          1672
    rhs       c61                          1590
    rhs       c62                          2251
    rhs       c63                          3549
    rhs       c64                          1681
    rhs       c65                          1537
    rhs       c66                          2862
    rhs       c67                          1807
    rhs       c68                          1325
    rhs       c69                          1174
    rhs       c70                          1374
BOUNDS
 LI bnd       x1        0
 LI bnd       x2        0
 LI bnd       x3        0
 LI bnd       x4        0
 LI bnd       x5        0
 LI bnd       x6        0
 LI bnd       x7        0
 LI bnd       x8        0
 LI bnd       x9        0
 LI bnd       x10       0
 LI bnd       x11       0
 LI bnd       x12       0
 LI bnd       x13       0
 LI bnd       x14       0
 LI bnd       x15       0
 LI bnd       x16       0
 LI bnd       x17       0
 LI bnd       x18       0
 LI bnd       x19       0
 LI bnd       x20       0
 LI bnd       x21       0
 LI bnd       x22       0
 LI bnd       x23       0
 LI bnd       x24       0
 LI bnd       x25       0
 LI bnd       x26       0
 LI bnd       x27       0
 LI bnd       x28       0
 LI bnd       x29       0
 LI bnd       x30       0
 LI bnd       x31       0
 LI bnd       x32       0
 LI bnd       x33       0
 LI bnd       x34       0
 LI bnd       x35       0
 LI bnd       x36       0
 LI bnd       x37       0
 LI bnd       x38       0
 LI bnd       x39       0
 LI bnd       x40       0
 LI bnd       x41       0
 LI bnd       x42       0
 LI bnd       x43       0
 LI bnd       x44       0
 LI bnd       x45       0
 LI bnd       x46       0
 LI bnd       x47       0
 LI bnd       x48       0
 LI bnd       x49       0
 LI bnd       x50       0
 LI bnd       x51       0
 LI bnd       x52       0
 LI bnd       x53       0
 LI bnd       x54       0
 LI bnd       x55       0
 LI bnd       x56       0
 LI bnd       x57       0
 LI bnd       x58       0
 LI bnd       x59       0
 LI bnd       x60       0
 LI bnd       x61       0
 LI bnd       x62       0
 LI bnd       x63       0
 LI bnd       x64       0
 LI bnd       x65       0
 LI bnd       x66       0
 LI bnd       x67       0
 LI bnd       x68       0
 LI bnd       x69       0
 LI bnd       x70       0
ENDATA
